NAME : lin105.tsp
TYPE : TOUR
DIMENSION : 105
TOUR_LENGTH : 15232.993201608118
TOUR_SECTION
1
2
6
7
10
11
15
21
22
29
30
31
32
33
36
37
104
40
49
45
48
50
55
56
59
105
64
69
70
74
75
81
80
76
73
79
77
72
67
68
71
78
82
83
84
85
91
92
96
97
101
102
93
86
89
90
98
99
100
95
94
88
87
66
65
60
61
63
62
57
54
51
47
44
41
42
43
46
52
53
58
39
38
35
34
14
13
4
5
9
8
17
16
18
25
26
27
24
19
28
23
20
103
12
3
-1
